12
Coordinates from ORCA-job nma
  C          -4.70873000000000      3.09275000000000     -0.12494000000000
  C          -3.26538000000000      3.50419000000000      0.05621000000000
  H          -5.31260000000000      3.94361000000000     -0.44728000000000
  H          -4.78575000000000      2.30492000000000     -0.87737000000000
  H          -5.11402000000000      2.71281000000000      0.81535000000000
  C          -1.42450000000000      2.64269000000000      0.60154000000000
  H          -2.81898000000000      1.59034000000000      0.57139000000000
  O          -2.88136000000000      4.64249000000000     -0.12606000000000
  N          -2.43304000000000      2.51257000000000      0.43777000000000
  H          -0.98752000000000      1.71082000000000      0.89407000000000
  H          -0.95882000000000      2.98832000000000     -0.29767000000000
  H          -1.27946000000000      3.36409000000000      1.37835000000000
